experiments/eusolverbv/0/DirectTrainGenes/0100100101000110001110011011110100011000100/67_.out
(define-fun f ((x (BitVec 64))) (BitVec 64)
     (if0 (bvand x #x0000000000000001) (if0 (func27 #x0000000000000001 (shr16 x)) (shl1 x) x) (bvnot x)))
0.5877274144440889
